Reading model...
...model read.
creating competitive generators file...
...competitive generators recorded.
Loading data...
.. real-time data read.
Compiling instance...
...instance created.
Creating Offer Mitigation (model will solve as dispatch if TRUE)...
...storage offer mitigation file created
Converting model to MPEC...
...converted
NOTE: initial MIP solve with only storage competitive to get feasible solution
Solving...

Welcome to IBM(R) ILOG(R) CPLEX(R) Interactive Optimizer 12.10.0.0
  with Simplex, Mixed Integer & Barrier Optimizers
5725-A06 5725-A29 5724-Y48 5724-Y49 5724-Y54 5724-Y55 5655-Y21
Copyright IBM Corp. 1988, 2019.  All Rights Reserved.

Type 'help' for a list of available commands.
Type 'help' followed by a command name for more
information on commands.

CPLEX> Logfile 'cplex.log' closed.
Logfile 'C:\Users\wenmi\Desktop\competitiveMPEC\logs\tmprnl6xma5.cplex.log' open.
CPLEX> New value for parallel optimization mode: -1
CPLEX> New value for mixed integer optimality gap tolerance: 0.05
CPLEX> New value for deterministic time limit in ticks: 100000
CPLEX> Problem 'C:\Users\wenmi\Desktop\competitiveMPEC\logs\tmpvxwz29dn.pyomo.lp' read.
Read time = 0.33 sec. (26.96 ticks)
CPLEX> Problem name         : C:\Users\wenmi\Desktop\competitiveMPEC\logs\tmpvxwz29dn.pyomo.lp
Objective sense      : Maximize
Variables            :  106816  [Nneg: 1,  Box: 43669,  Free: 8832,
                                 Binary: 54314]
Objective nonzeros   :   19009
Linear constraints   :  244875  [Less: 82143,  Greater: 117460,  Equal: 45272]
  Nonzeros           :  578373
  RHS nonzeros       :  135259

Variables            : Min LB: -5000.000        Max UB: 1000000.       
Objective nonzeros   : Min   : 0.1666667        Max   : 180.0000       
Linear constraints   :
  Nonzeros           : Min   : 0.1666667        Max   : 1000000.       
  RHS nonzeros       : Min   : 0.1666667        Max   : 1000000.       
CPLEX> Version identifier: 12.10.0.0 | 2019-11-26 | 843d4de2ae
CPXPARAM_Parallel                                -1
CPXPARAM_DetTimeLimit                            100000
CPXPARAM_MIP_Tolerances_MIPGap                   0.050000000000000003
Tried aggregator 3 times.
MIP Presolve eliminated 171794 rows and 33871 columns.
MIP Presolve added 7727 rows and 0 columns.
MIP Presolve modified 51446 coefficients.
Aggregator did 25864 substitutions.
Reduced MIP has 54944 rows, 46697 columns, and 150058 nonzeros.
Reduced MIP has 18537 binaries, 0 generals, 0 SOSs, and 0 indicators.
Presolve time = 0.34 sec. (331.19 ticks)
Probing fixed 808 vars, tightened 15662 bounds.
Probing time = 0.09 sec. (20.88 ticks)
Tried aggregator 2 times.
Detecting symmetries...
MIP Presolve eliminated 1821 rows and 1644 columns.
MIP Presolve modified 7068 coefficients.
Aggregator did 86 substitutions.
Reduced MIP has 53037 rows, 44967 columns, and 144419 nonzeros.
Reduced MIP has 17724 binaries, 0 generals, 0 SOSs, and 0 indicators.
Presolve time = 0.17 sec. (273.88 ticks)
Probing fixed 5 vars, tightened 567 bounds.
Probing time = 0.22 sec. (29.57 ticks)
Clique table members: 87248.
MIP emphasis: balance optimality and feasibility.
MIP search method: dynamic search.
Parallel mode: opportunistic, using up to 16 threads.
Root relaxation solution time = 0.72 sec. (2234.97 ticks)

        Nodes                                         Cuts/
   Node  Left     Objective  IInf  Best Integer    Best Bound    ItCnt     Gap

      0     0      111.6232    32                    111.6232    10973         
*     0+    0                          111.6232      111.6232             0.00%
      0     0        cutoff            111.6232      111.6232    10973    0.00%
Elapsed time = 2.66 sec. (4927.44 ticks, tree = 0.01 MB, solutions = 1)

Root node processing (before b&c):
  Real time             =    2.67 sec. (4931.14 ticks)
Parallel b&c, 16 threads:
  Real time             =    0.00 sec. (0.00 ticks)
  Sync time (average)   =    0.00 sec.
  Wait time (average)   =    0.00 sec.
                          ------------
Total (root+branch&cut) =    2.67 sec. (4931.14 ticks)

Solution pool: 1 solution saved.

MIP - Integer optimal solution:  Objective =  1.1162319361e+02
Solution time =    2.67 sec.  Iterations = 10973  Nodes = 0
Deterministic time = 4931.44 ticks  (1845.60 ticks/sec)

CPLEX> Incumbent solution written to file 'C:\Users\wenmi\Desktop\competitiveMPEC\logs\tmphj3g0k64.cplex.sol'.
CPLEX> NOTE: no warmstart specified for MIP iteration, default behavior is true
NOTE: resolving with all competitive generators using storage-only solution to warmstart
Solving...

Welcome to IBM(R) ILOG(R) CPLEX(R) Interactive Optimizer 12.10.0.0
  with Simplex, Mixed Integer & Barrier Optimizers
5725-A06 5725-A29 5724-Y48 5724-Y49 5724-Y54 5724-Y55 5655-Y21
Copyright IBM Corp. 1988, 2019.  All Rights Reserved.

Type 'help' for a list of available commands.
Type 'help' followed by a command name for more
information on commands.

CPLEX> Logfile 'cplex.log' closed.
Logfile 'C:\Users\wenmi\Desktop\competitiveMPEC\logs\tmp_emxf85w.cplex.log' open.
CPLEX> New value for parallel optimization mode: -1
CPLEX> New value for mixed integer optimality gap tolerance: 0.05
CPLEX> New value for deterministic time limit in ticks: 100000
CPLEX> Problem 'C:\Users\wenmi\Desktop\competitiveMPEC\logs\tmpfx1u3b92.pyomo.lp' read.
Read time = 0.33 sec. (27.00 ticks)
CPLEX> MIP start file 'C:\Users\wenmi\Desktop\competitiveMPEC\logs\tmpqy1_bjy5.cplex.mst' read.
CPLEX> Problem name         : C:\Users\wenmi\Desktop\competitiveMPEC\logs\tmpfx1u3b92.pyomo.lp
Objective sense      : Maximize
Variables            :  108256  [Nneg: 1,  Box: 45109,  Free: 8832,
                                 Binary: 54314]
Objective nonzeros   :   20401
Linear constraints   :  244875  [Less: 82143,  Greater: 117460,  Equal: 45272]
  Nonzeros           :  578373
  RHS nonzeros       :  135259

Variables            : Min LB: -5000.000        Max UB: 1000000.       
Objective nonzeros   : Min   : 0.1666667        Max   : 180.0000       
Linear constraints   :
  Nonzeros           : Min   : 0.1666667        Max   : 1000000.       
  RHS nonzeros       : Min   : 0.1666667        Max   : 1000000.       
CPLEX> Version identifier: 12.10.0.0 | 2019-11-26 | 843d4de2ae
CPXPARAM_Parallel                                -1
CPXPARAM_DetTimeLimit                            100000
CPXPARAM_MIP_Tolerances_MIPGap                   0.050000000000000003
1 of 1 MIP starts provided solutions.
MIP start 'm1' defined initial solution with objective 898.0711.
Tried aggregator 3 times.
MIP Presolve eliminated 171794 rows and 35311 columns.
MIP Presolve added 7727 rows and 0 columns.
MIP Presolve modified 51446 coefficients.
Aggregator did 25864 substitutions.
Reduced MIP has 54944 rows, 46697 columns, and 150058 nonzeros.
Reduced MIP has 18537 binaries, 0 generals, 0 SOSs, and 0 indicators.
Presolve time = 0.34 sec. (331.92 ticks)
Probing fixed 808 vars, tightened 15662 bounds.
Probing time = 0.11 sec. (20.88 ticks)
Tried aggregator 2 times.
Detecting symmetries...
MIP Presolve eliminated 1821 rows and 1644 columns.
MIP Presolve modified 7068 coefficients.
Aggregator did 86 substitutions.
Reduced MIP has 53037 rows, 44967 columns, and 144419 nonzeros.
Reduced MIP has 17724 binaries, 0 generals, 0 SOSs, and 0 indicators.
Presolve time = 0.17 sec. (273.89 ticks)
Probing fixed 5 vars, tightened 563 bounds.
Probing time = 0.19 sec. (27.59 ticks)
Clique table members: 87099.
MIP emphasis: balance optimality and feasibility.
MIP search method: dynamic search.
Parallel mode: opportunistic, using up to 16 threads.
Root relaxation solution time = 0.74 sec. (2354.32 ticks)

        Nodes                                         Cuts/
   Node  Left     Objective  IInf  Best Integer    Best Bound    ItCnt     Gap

*     0+    0                          898.0711   1.31341e+07              --- 
      0     0     1402.9435    66      898.0711     1402.9435    11915   56.22%
*     0+    0                         1052.7247     1402.9435            33.27%
      0     0     1402.9435    66     1052.7247      Cuts: 26    11921   33.27%
      0     0     1402.9435    66     1052.7247       Cuts: 4    11931   33.27%
      0     0     1402.9435    66     1052.7247      Cuts: 20    11934   33.27%
      0     9        cutoff           1052.7247     1402.9435    11963   33.27%
Elapsed time = 4.97 sec. (6671.93 ticks, tree = 0.02 MB, solutions = 2)
    150    84     1245.7127     2     1052.7247     1402.9435    12281   33.27%
    411   154     1175.2552     2     1052.7247     1402.9435    12370   33.27%
*   448    80      integral     0     1245.7127     1402.9435    12302   12.62%
    626   182        cutoff           1245.7127     1402.9435    13592   12.62%
    866   264        cutoff           1245.7127     1402.9435    15183   12.62%
   1084   243     1368.2431     5     1245.7127     1402.9435    13867   12.62%
   1402   298        cutoff           1245.7127     1402.9435    14559   12.62%
   1681   286        cutoff           1245.7127     1402.9435    16889   12.62%
   1831   716     1368.2431     3     1245.7127     1402.9435    18640   12.62%
   2482   983     1368.2431     3     1245.7127     1368.2431    19741    9.84%
Elapsed time = 19.78 sec. (9588.91 ticks, tree = 11.75 MB, solutions = 4)
   3307  1464     1368.2431     4     1245.7127     1368.2431    22137    9.84%
   4175  1567        cutoff           1245.7127     1368.2431    26288    9.84%
   4988  1563     1368.2431     3     1245.7127     1368.2431    28929    9.84%
   5742   672        cutoff           1245.7127     1368.2431    42134    9.84%
   6290   296     1368.2431     6     1245.7127     1368.2431    45537    9.84%

Cover cuts applied:  2
Implied bound cuts applied:  9
Flow cuts applied:  6
Mixed integer rounding cuts applied:  6
Gomory fractional cuts applied:  8

Root node processing (before b&c):
  Real time             =    4.27 sec. (6639.15 ticks)
Parallel b&c, 16 threads:
  Real time             =   33.59 sec. (8286.01 ticks)
  Sync time (average)   =    1.98 sec.
  Wait time (average)   =    0.00 sec.
                          ------------
Total (root+branch&cut) =   37.86 sec. (14925.16 ticks)

Solution pool: 4 solutions saved.

MIP - Integer optimal solution:  Objective =  1.2457126578e+03
Solution time =   37.88 sec.  Iterations = 52642  Nodes = 6478
Deterministic time = 14925.47 ticks  (394.07 ticks/sec)

CPLEX> Incumbent solution written to file 'C:\Users\wenmi\Desktop\competitiveMPEC\logs\tmpin82snak.cplex.sol'.
CPLEX> Exporting results... 
